\ Model MaximumCut
\ LP format - for model browsing. Use MPS format to capture full model detail.
Maximize
  556 y[0] + 514.5 y[1] + 547 y[2] + 410.5 y[3] + 602.5 y[4] + 509 y[5]
   + 532 y[6] + 555.5 y[7] + 573.5 y[8] + 596.5 y[9] + [ - 34 y[0] ^2
   - 310 y[0] * y[1] - 388 y[0] * y[2] - 96 y[0] * y[3] - 172 y[0] * y[4]
   - 118 y[0] * y[5] - 290 y[0] * y[6] - 376 y[0] * y[7] - 242 y[0] * y[8]
   - 164 y[0] * y[9] - 96 y[1] ^2 - 396 y[1] * y[2] - 58 y[1] * y[3]
   - 208 y[1] * y[4] - 182 y[1] * y[5] - 30 y[1] * y[6] - 226 y[1] * y[7]
   - 210 y[1] * y[8] - 246 y[1] * y[9] - 182 y[2] * y[3] - 120 y[2] * y[4]
   - 240 y[2] * y[5] - 230 y[2] * y[6] - 166 y[2] * y[7] - 300 y[2] * y[8]
   - 166 y[2] * y[9] - 6 y[3] ^2 - 300 y[3] * y[4] - 194 y[3] * y[5]
   - 162 y[3] * y[6] - 224 y[3] * y[7] - 182 y[3] * y[8] - 232 y[3] * y[9]
   - 56 y[4] ^2 - 388 y[4] * y[5] - 296 y[4] * y[6] - 296 y[4] * y[7]
   - 262 y[4] * y[8] - 256 y[4] * y[9] - 116 y[5] ^2 - 148 y[5] * y[6]
   - 52 y[5] * y[7] - 168 y[5] * y[8] - 314 y[5] * y[9] - 30 y[6] ^2
   - 266 y[6] * y[7] - 274 y[6] * y[8] - 372 y[6] * y[9] - 72 y[7] ^2
   - 252 y[7] * y[8] - 220 y[7] * y[9] - 106 y[8] ^2 - 192 y[8] * y[9]
   - 112 y[9] ^2 ] / 2 
Subject To
Bounds
Binaries
 y[0] y[1] y[2] y[3] y[4] y[5] y[6] y[7] y[8] y[9]
End
